c Random generated cnf formula, satisfiable: true
p cnf 10 50
-4 2 -9 0
6 -1 8 0
9 -10 -8 0
-2 1 6 0
-1 2 5 0
-6 -8 -9 0
10 -1 -5 0
-7 -9 2 0
9 -8 -10 0
10 -5 -8 0
-9 -8 -2 0
-8 10 2 0
-10 7 8 0
1 7 10 0
6 1 -7 0
-6 5 -3 0
-1 -10 -8 0
4 -1 -5 0
-6 5 1 0
8 2 -6 0
7 -5 -1 0
2 -10 9 0
-5 -1 8 0
-9 -7 6 0
-5 -10 -3 0
2 -6 -10 0
1 7 -3 0
6 -2 5 0
6 5 -3 0
-6 7 2 0
-1 2 7 0
-5 -2 6 0
-2 10 -3 0
-9 -4 8 0
-2 1 -9 0
5 10 2 0
-1 10 -8 0
9 3 7 0
1 5 9 0
2 -5 6 0
-1 9 -2 0
8 -3 6 0
-8 -9 -4 0
4 -7 2 0
-4 1 -6 0
-8 6 2 0
3 -5 7 0
2 -7 3 0
-5 -10 2 0
8 -2 7 0
